c p0=0.08
p cnf 10 70
-2 -1 10 0
-8 9 -3 0
-1 -8 -7 0
3 9 6 0
5 8 9 0
-10 -9 -3 0
-10 -7 4 0
9 -1 10 0
7 6 -2 0
9 -2 4 0
-3 -6 9 0
-1 2 -3 0
-8 -4 6 0
5 4 2 0
-8 -10 3 0
-8 -4 5 0
-4 9 5 0
4 3 -5 0
7 3 -8 0
6 4 8 0
2 8 10 0
3 8 -2 0
-4 5 1 0
-8 -6 7 0
-4 -8 -6 0
-6 10 -4 0
-3 -9 4 0
4 -2 -10 0
-6 -9 -4 0
2 -10 -9 0
-3 -8 2 0
-7 6 -1 0
-4 5 6 0
-8 9 -10 0
-1 7 -8 0
-3 9 6 0
5 7 8 0
9 7 -3 0
-8 -9 -4 0
2 8 10 0
-3 -1 7 0
9 -2 1 0
-5 7 -3 0
8 1 2 0
-6 -3 -4 0
7 3 1 0
-2 -7 8 0
3 5 7 0
9 2 -7 0
-3 -9 6 0
2 6 9 0
9 -6 10 0
4 3 -8 0
-7 4 -1 0
4 9 7 0
5 6 1 0
6 -5 1 0
-1 -2 -9 0
7 -9 -10 0
-5 6 -3 0
9 8 -3 0
-10 -5 -3 0
5 -6 9 0
4 -1 6 0
-6 -4 -8 0
-6 10 4 0
-7 3 2 0
3 -1 6 0
-9 -4 3 0
-1 -2 -6 0
